*SPEF "IEEE 1481-1998"
*DESIGN "NAND2_GAA_X1"
*DATE "2026"
*VENDOR "GAA3 reference extractor (gaa3_pex.py)"
*PROGRAM "gaa3_pex"
*VERSION "1.0"
*DESIGN_FLOW "PIN_CAP NONE" "NAME_SCOPE LOCAL"
*DIVIDER /
*DELIMITER :
*BUS_DELIMITER [ ]
*T_UNIT 1 PS
*C_UNIT 1 FF
*R_UNIT 1 OHM
*L_UNIT 1 HENRY

*NAME_MAP
*1 A
*2 Y
*3 B
*4 int0
*5 float0
*6 float1
*7 VSS
*8 VDD

*D_NET *1 0.27150
*CONN
*P *1 B
*CAP
1 *1:1 0.13054
2 *1:1 *2:1 0.05272
3 *1:1 *4:1 0.07500
4 *1:1 *3:1 0.00684
5 *1:1 *5:1 0.00640
*RES
1 *1:1 *1:2 447.00
*END

*D_NET *2 0.22048
*CONN
*P *2 B
*CAP
1 *2:1 0.03351
2 *2:1 *3:1 0.12853
3 *2:1 *4:1 0.00573
*RES
1 *2:1 *2:2 701.90
*END

*D_NET *3 0.27231
*CONN
*P *3 B
*CAP
1 *3:1 0.05554
2 *3:1 *4:1 0.07500
3 *3:1 *6:1 0.00640
*RES
1 *3:1 *3:2 447.00
*END

*D_NET *4 0.16236
*CONN
*P *4 B
*CAP
1 *4:1 0.00663
*RES
1 *4:1 *4:2 111.10
*END

*D_NET *5 0.00865
*CONN
*P *5 B
*CAP
1 *5:1 0.00226
*RES
1 *5:1 *5:2 300.00
*END

*D_NET *6 0.00865
*CONN
*P *6 B
*CAP
1 *6:1 0.00226
*RES
1 *6:1 *6:2 300.00
*END

*D_NET *7 0.01955
*CONN
*P *7 B
*CAP
1 *7:1 0.01955
*RES
1 *7:1 *7:2 390.30
*END

*D_NET *8 0.02528
*CONN
*P *8 B
*CAP
1 *8:1 0.02528
*RES
1 *8:1 *8:2 738.70
*END
