*SPEF "IEEE 1481-1998"
*DESIGN "INV_GAA_X1"
*DATE "2026"
*VENDOR "GAA3 reference extractor (gaa3_pex.py)"
*PROGRAM "gaa3_pex"
*VERSION "1.0"
*DESIGN_FLOW "PIN_CAP NONE" "NAME_SCOPE LOCAL"
*DIVIDER /
*DELIMITER :
*BUS_DELIMITER [ ]
*T_UNIT 1 PS
*C_UNIT 1 FF
*R_UNIT 1 OHM
*L_UNIT 1 HENRY

*NAME_MAP
*1 A
*2 Y
*3 float0
*4 float1
*5 VSS
*6 VDD

*D_NET *1 0.27187
*CONN
*P *1 B
*CAP
1 *1:1 0.13054
2 *1:1 *2:1 0.12853
3 *1:1 *3:1 0.00640
4 *1:1 *4:1 0.00640
*RES
1 *1:1 *1:2 447.00
*END

*D_NET *2 0.14977
*CONN
*P *2 B
*CAP
1 *2:1 0.02124
*RES
1 *2:1 *2:2 505.30
*END

*D_NET *3 0.00865
*CONN
*P *3 B
*CAP
1 *3:1 0.00226
*RES
1 *3:1 *3:2 300.00
*END

*D_NET *4 0.00865
*CONN
*P *4 B
*CAP
1 *4:1 0.00226
*RES
1 *4:1 *4:2 300.00
*END

*D_NET *5 0.01524
*CONN
*P *5 B
*CAP
1 *5:1 0.01524
*RES
1 *5:1 *5:2 395.00
*END

*D_NET *6 0.01599
*CONN
*P *6 B
*CAP
1 *6:1 0.01599
*RES
1 *6:1 *6:2 339.40
*END
