*SPEF "IEEE 1481-1998"
*DESIGN "RO11_GAA"
*DATE "2026"
*VENDOR "GAA3 reference extractor (gaa3_pex.py)"
*PROGRAM "gaa3_pex"
*VERSION "1.0"
*DESIGN_FLOW "PIN_CAP NONE" "NAME_SCOPE LOCAL"
*DIVIDER /
*DELIMITER :
*BUS_DELIMITER [ ]
*T_UNIT 1 PS
*C_UNIT 1 FF
*R_UNIT 1 OHM
*L_UNIT 1 HENRY

*NAME_MAP
*1 OUT
*2 int0
*3 int1
*4 int2
*5 int3
*6 int4
*7 int5
*8 int6
*9 int7
*10 int8
*11 int9
*12 float0
*13 float1
*14 float2
*15 float3
*16 float4
*17 float5
*18 float6
*19 float7
*20 float8
*21 float9
*22 float10
*23 float11
*24 VSS
*25 VDD

*D_NET *1 0.55880
*CONN
*P *1 B
*CAP
1 *1:1 0.22175
2 *1:1 *2:1 0.13559
3 *1:1 *6:1 0.13450
4 *1:1 *9:1 0.00597
5 *1:1 *3:1 0.00597
6 *1:1 *4:1 0.00597
7 *1:1 *5:1 0.00597
8 *1:1 *7:1 0.00597
9 *1:1 *8:1 0.00597
10 *1:1 *10:1 0.00597
11 *1:1 *11:1 0.00597
12 *1:1 *12:1 0.00640
13 *1:1 *13:1 0.01280
*RES
1 *1:1 *1:2 2201.30
*END

*D_NET *2 0.45737
*CONN
*P *2 B
*CAP
1 *2:1 0.16656
2 *2:1 *9:1 0.12962
3 *2:1 *13:1 0.01280
4 *2:1 *23:1 0.01280
*RES
1 *2:1 *2:2 1116.80
*END

*D_NET *3 0.45737
*CONN
*P *3 B
*CAP
1 *3:1 0.16656
2 *3:1 *4:1 0.12962
3 *3:1 *9:1 0.12962
4 *3:1 *21:1 0.01280
5 *3:1 *22:1 0.01280
*RES
1 *3:1 *3:2 1116.80
*END

*D_NET *4 0.45737
*CONN
*P *4 B
*CAP
1 *4:1 0.16656
2 *4:1 *5:1 0.12962
3 *4:1 *20:1 0.01280
4 *4:1 *21:1 0.01280
*RES
1 *4:1 *4:2 1116.80
*END

*D_NET *5 0.45737
*CONN
*P *5 B
*CAP
1 *5:1 0.16656
2 *5:1 *7:1 0.12962
3 *5:1 *19:1 0.01280
4 *5:1 *20:1 0.01280
*RES
1 *5:1 *5:2 1116.80
*END

*D_NET *6 0.44987
*CONN
*P *6 B
*CAP
1 *6:1 0.16656
2 *6:1 *11:1 0.12962
3 *6:1 *14:1 0.01280
4 *6:1 *15:1 0.00640
*RES
1 *6:1 *6:2 1116.80
*END

*D_NET *7 0.45737
*CONN
*P *7 B
*CAP
1 *7:1 0.16656
2 *7:1 *8:1 0.12962
3 *7:1 *18:1 0.01280
4 *7:1 *19:1 0.01280
*RES
1 *7:1 *7:2 1116.80
*END

*D_NET *8 0.45737
*CONN
*P *8 B
*CAP
1 *8:1 0.16656
2 *8:1 *10:1 0.12962
3 *8:1 *17:1 0.01280
4 *8:1 *18:1 0.01280
*RES
1 *8:1 *8:2 1116.80
*END

*D_NET *9 0.45737
*CONN
*P *9 B
*CAP
1 *9:1 0.16656
2 *9:1 *22:1 0.01280
3 *9:1 *23:1 0.01280
*RES
1 *9:1 *9:2 1116.80
*END

*D_NET *10 0.45737
*CONN
*P *10 B
*CAP
1 *10:1 0.16656
2 *10:1 *11:1 0.12962
3 *10:1 *16:1 0.01280
4 *10:1 *17:1 0.01280
*RES
1 *10:1 *10:2 1116.80
*END

*D_NET *11 0.45737
*CONN
*P *11 B
*CAP
1 *11:1 0.16656
2 *11:1 *14:1 0.01280
3 *11:1 *16:1 0.01280
*RES
1 *11:1 *11:2 1116.80
*END

*D_NET *12 0.00865
*CONN
*P *12 B
*CAP
1 *12:1 0.00226
*RES
1 *12:1 *12:2 300.00
*END

*D_NET *13 0.03011
*CONN
*P *13 B
*CAP
1 *13:1 0.00451
*RES
1 *13:1 *13:2 600.00
*END

*D_NET *14 0.03011
*CONN
*P *14 B
*CAP
1 *14:1 0.00451
*RES
1 *14:1 *14:2 600.00
*END

*D_NET *15 0.00865
*CONN
*P *15 B
*CAP
1 *15:1 0.00226
*RES
1 *15:1 *15:2 300.00
*END

*D_NET *16 0.03011
*CONN
*P *16 B
*CAP
1 *16:1 0.00451
*RES
1 *16:1 *16:2 600.00
*END

*D_NET *17 0.03011
*CONN
*P *17 B
*CAP
1 *17:1 0.00451
*RES
1 *17:1 *17:2 600.00
*END

*D_NET *18 0.03011
*CONN
*P *18 B
*CAP
1 *18:1 0.00451
*RES
1 *18:1 *18:2 600.00
*END

*D_NET *19 0.03011
*CONN
*P *19 B
*CAP
1 *19:1 0.00451
*RES
1 *19:1 *19:2 600.00
*END

*D_NET *20 0.03011
*CONN
*P *20 B
*CAP
1 *20:1 0.00451
*RES
1 *20:1 *20:2 600.00
*END

*D_NET *21 0.03011
*CONN
*P *21 B
*CAP
1 *21:1 0.00451
*RES
1 *21:1 *21:2 600.00
*END

*D_NET *22 0.03011
*CONN
*P *22 B
*CAP
1 *22:1 0.00451
*RES
1 *22:1 *22:2 600.00
*END

*D_NET *23 0.03011
*CONN
*P *23 B
*CAP
1 *23:1 0.00451
*RES
1 *23:1 *23:2 600.00
*END

*D_NET *24 0.16768
*CONN
*P *24 B
*CAP
1 *24:1 0.16768
*RES
1 *24:1 *24:2 4345.00
*END

*D_NET *25 0.17593
*CONN
*P *25 B
*CAP
1 *25:1 0.17593
*RES
1 *25:1 *25:2 3733.90
*END
