*SPEF "IEEE 1481-1998"
*DESIGN "SRAM6T_GAA_HD"
*DATE "2026"
*VENDOR "GAA3 reference extractor (gaa3_pex.py)"
*PROGRAM "gaa3_pex"
*VERSION "1.0"
*DESIGN_FLOW "PIN_CAP NONE" "NAME_SCOPE LOCAL"
*DIVIDER /
*DELIMITER :
*BUS_DELIMITER [ ]
*T_UNIT 1 PS
*C_UNIT 1 FF
*R_UNIT 1 OHM
*L_UNIT 1 HENRY

*NAME_MAP
*1 WL
*2 BLB
*3 QB
*4 Q
*5 BL
*6 VSS
*7 VDD

*D_NET *1 0.21591
*CONN
*P *1 B
*CAP
1 *1:1 0.03002
2 *1:1 *2:1 0.04643
3 *1:1 *3:1 0.04651
4 *1:1 *4:1 0.04651
5 *1:1 *5:1 0.04643
*RES
1 *1:1 *1:2 979.00
*END

*D_NET *2 0.06804
*CONN
*P *2 B
*CAP
1 *2:1 0.01925
2 *2:1 *3:1 0.00236
*RES
1 *2:1 *2:2 579.70
*END

*D_NET *3 0.36711
*CONN
*P *3 B
*CAP
1 *3:1 0.11729
2 *3:1 *4:1 0.20095
*RES
1 *3:1 *3:2 1212.90
*END

*D_NET *4 0.36711
*CONN
*P *4 B
*CAP
1 *4:1 0.11729
2 *4:1 *5:1 0.00236
*RES
1 *4:1 *4:2 1212.90
*END

*D_NET *5 0.06804
*CONN
*P *5 B
*CAP
1 *5:1 0.01925
*RES
1 *5:1 *5:2 579.70
*END

*D_NET *6 0.02794
*CONN
*P *6 B
*CAP
1 *6:1 0.02794
*RES
1 *6:1 *6:2 1032.50
*END

*D_NET *7 0.01716
*CONN
*P *7 B
*CAP
1 *7:1 0.01716
*RES
1 *7:1 *7:2 1025.50
*END
