*SPEF "IEEE 1481-1998"
*DESIGN "ring_osc"
*DATE "2026"
*VENDOR "GAA3 reference extractor (gaa3_pex.py)"
*PROGRAM "gaa3_pex"
*VERSION "1.0"
*DESIGN_FLOW "PIN_CAP NONE" "NAME_SCOPE LOCAL"
*DIVIDER /
*DELIMITER :
*BUS_DELIMITER [ ]
*T_UNIT 1 PS
*C_UNIT 1 FF
*R_UNIT 1 OHM
*L_UNIT 1 HENRY

*NAME_MAP
*1 n[2]
*2 n[3]
*3 n[8]
*4 n[9]
*5 n[0]
*6 n[1]
*7 en
*8 syn_net1
*9 out
*10 n[7]
*11 n[10]
*12 n[6]
*13 n[4]
*14 n[5]
*15 int0
*16 float0
*17 float1
*18 float2
*19 float3
*20 float4
*21 float5
*22 float6
*23 float7
*24 float8
*25 float9
*26 float10
*27 float11
*28 float12
*29 float13
*30 float14
*31 float15
*32 float16
*33 float17
*34 float18
*35 float19
*36 float20
*37 float21
*38 float22
*39 float23
*40 float24
*41 float25
*42 float26
*43 float27
*44 float28
*45 float29
*46 float30
*47 float31
*48 VSS
*49 VDD

*D_NET *1 0.45514
*CONN
*P *1 B
*CAP
1 *1:1 0.16104
2 *1:1 *2:1 0.12962
3 *1:1 *6:1 0.12962
4 *1:1 *9:1 0.00926
5 *1:1 *34:1 0.01280
6 *1:1 *37:1 0.01280
*RES
1 *1:1 *1:2 1170.80
*END

*D_NET *2 0.45514
*CONN
*P *2 B
*CAP
1 *2:1 0.16104
2 *2:1 *13:1 0.12962
3 *2:1 *9:1 0.00926
4 *2:1 *32:1 0.01280
5 *2:1 *35:1 0.01280
*RES
1 *2:1 *2:2 1170.80
*END

*D_NET *3 0.45514
*CONN
*P *3 B
*CAP
1 *3:1 0.16104
2 *3:1 *4:1 0.12962
3 *3:1 *10:1 0.12962
4 *3:1 *9:1 0.00926
5 *3:1 *22:1 0.01280
6 *3:1 *25:1 0.01280
*RES
1 *3:1 *3:2 1170.80
*END

*D_NET *4 0.45514
*CONN
*P *4 B
*CAP
1 *4:1 0.16104
2 *4:1 *11:1 0.12962
3 *4:1 *9:1 0.00926
4 *4:1 *20:1 0.01280
5 *4:1 *23:1 0.01280
*RES
1 *4:1 *4:2 1170.80
*END

*D_NET *5 0.46254
*CONN
*P *5 B
*CAP
1 *5:1 0.16406
2 *5:1 *6:1 0.12962
3 *5:1 *8:1 0.13072
4 *5:1 *9:1 0.01254
5 *5:1 *40:1 0.01280
6 *5:1 *42:1 0.01280
*RES
1 *5:1 *5:2 1224.80
*END

*D_NET *6 0.46144
*CONN
*P *6 B
*CAP
1 *6:1 0.16406
2 *6:1 *9:1 0.01254
3 *6:1 *36:1 0.01280
4 *6:1 *39:1 0.01280
*RES
1 *6:1 *6:2 1224.80
*END

*D_NET *7 0.31700
*CONN
*P *7 B
*CAP
1 *7:1 0.07769
2 *7:1 *8:1 0.14057
3 *7:1 *15:1 0.07500
4 *7:1 *9:1 0.01095
5 *7:1 *17:1 0.01280
*RES
1 *7:1 *7:2 792.50
*END

*D_NET *8 0.55773
*CONN
*P *8 B
*CAP
1 *8:1 0.19284
2 *8:1 *9:1 0.06229
3 *8:1 *43:1 0.01280
4 *8:1 *45:1 0.01280
5 *8:1 *15:1 0.00573
*RES
1 *8:1 *8:2 1614.80
*END

*D_NET *9 0.68910
*CONN
*P *9 B
*CAP
1 *9:1 0.29114
2 *9:1 *11:1 0.13778
3 *9:1 *15:1 0.07500
4 *9:1 *13:1 0.00926
5 *9:1 *14:1 0.00926
6 *9:1 *12:1 0.00926
7 *9:1 *10:1 0.00926
8 *9:1 *16:1 0.01280
*RES
1 *9:1 *9:2 3380.30
*END

*D_NET *10 0.45514
*CONN
*P *10 B
*CAP
1 *10:1 0.16104
2 *10:1 *12:1 0.12962
3 *10:1 *24:1 0.01280
4 *10:1 *27:1 0.01280
*RES
1 *10:1 *10:2 1170.80
*END

*D_NET *11 0.45404
*CONN
*P *11 B
*CAP
1 *11:1 0.16104
2 *11:1 *18:1 0.01280
3 *11:1 *21:1 0.01280
*RES
1 *11:1 *11:2 1170.80
*END

*D_NET *12 0.45514
*CONN
*P *12 B
*CAP
1 *12:1 0.16104
2 *12:1 *14:1 0.12962
3 *12:1 *26:1 0.01280
4 *12:1 *29:1 0.01280
*RES
1 *12:1 *12:2 1170.80
*END

*D_NET *13 0.45514
*CONN
*P *13 B
*CAP
1 *13:1 0.16104
2 *13:1 *14:1 0.12962
3 *13:1 *30:1 0.01280
4 *13:1 *33:1 0.01280
*RES
1 *13:1 *13:2 1170.80
*END

*D_NET *14 0.45514
*CONN
*P *14 B
*CAP
1 *14:1 0.16104
2 *14:1 *28:1 0.01280
3 *14:1 *31:1 0.01280
*RES
1 *14:1 *14:2 1170.80
*END

*D_NET *15 0.16236
*CONN
*P *15 B
*CAP
1 *15:1 0.00663
*RES
1 *15:1 *15:2 111.10
*END

*D_NET *16 0.04290
*CONN
*P *16 B
*CAP
1 *16:1 0.00451
2 *16:1 *44:1 0.02559
*RES
1 *16:1 *16:2 600.00
*END

*D_NET *17 0.04290
*CONN
*P *17 B
*CAP
1 *17:1 0.00451
2 *17:1 *46:1 0.02559
*RES
1 *17:1 *17:2 600.00
*END

*D_NET *18 0.03011
*CONN
*P *18 B
*CAP
1 *18:1 0.00451
2 *18:1 *19:1 0.01280
*RES
1 *18:1 *18:2 600.00
*END

*D_NET *19 0.01505
*CONN
*P *19 B
*CAP
1 *19:1 0.00226
*RES
1 *19:1 *19:2 300.00
*END

*D_NET *20 0.04290
*CONN
*P *20 B
*CAP
1 *20:1 0.00451
2 *20:1 *21:1 0.02559
*RES
1 *20:1 *20:2 600.00
*END

*D_NET *21 0.04290
*CONN
*P *21 B
*CAP
1 *21:1 0.00451
*RES
1 *21:1 *21:2 600.00
*END

*D_NET *22 0.04290
*CONN
*P *22 B
*CAP
1 *22:1 0.00451
2 *22:1 *23:1 0.02559
*RES
1 *22:1 *22:2 600.00
*END

*D_NET *23 0.04290
*CONN
*P *23 B
*CAP
1 *23:1 0.00451
*RES
1 *23:1 *23:2 600.00
*END

*D_NET *24 0.04290
*CONN
*P *24 B
*CAP
1 *24:1 0.00451
2 *24:1 *25:1 0.02559
*RES
1 *24:1 *24:2 600.00
*END

*D_NET *25 0.04290
*CONN
*P *25 B
*CAP
1 *25:1 0.00451
*RES
1 *25:1 *25:2 600.00
*END

*D_NET *26 0.04290
*CONN
*P *26 B
*CAP
1 *26:1 0.00451
2 *26:1 *27:1 0.02559
*RES
1 *26:1 *26:2 600.00
*END

*D_NET *27 0.04290
*CONN
*P *27 B
*CAP
1 *27:1 0.00451
*RES
1 *27:1 *27:2 600.00
*END

*D_NET *28 0.04290
*CONN
*P *28 B
*CAP
1 *28:1 0.00451
2 *28:1 *29:1 0.02559
*RES
1 *28:1 *28:2 600.00
*END

*D_NET *29 0.04290
*CONN
*P *29 B
*CAP
1 *29:1 0.00451
*RES
1 *29:1 *29:2 600.00
*END

*D_NET *30 0.04290
*CONN
*P *30 B
*CAP
1 *30:1 0.00451
2 *30:1 *31:1 0.02559
*RES
1 *30:1 *30:2 600.00
*END

*D_NET *31 0.04290
*CONN
*P *31 B
*CAP
1 *31:1 0.00451
*RES
1 *31:1 *31:2 600.00
*END

*D_NET *32 0.04290
*CONN
*P *32 B
*CAP
1 *32:1 0.00451
2 *32:1 *33:1 0.02559
*RES
1 *32:1 *32:2 600.00
*END

*D_NET *33 0.04290
*CONN
*P *33 B
*CAP
1 *33:1 0.00451
*RES
1 *33:1 *33:2 600.00
*END

*D_NET *34 0.04290
*CONN
*P *34 B
*CAP
1 *34:1 0.00451
2 *34:1 *35:1 0.02559
*RES
1 *34:1 *34:2 600.00
*END

*D_NET *35 0.04290
*CONN
*P *35 B
*CAP
1 *35:1 0.00451
*RES
1 *35:1 *35:2 600.00
*END

*D_NET *36 0.04290
*CONN
*P *36 B
*CAP
1 *36:1 0.00451
2 *36:1 *37:1 0.02559
*RES
1 *36:1 *36:2 600.00
*END

*D_NET *37 0.04290
*CONN
*P *37 B
*CAP
1 *37:1 0.00451
*RES
1 *37:1 *37:2 600.00
*END

*D_NET *38 0.05570
*CONN
*P *38 B
*CAP
1 *38:1 0.00451
2 *38:1 *39:1 0.02559
3 *38:1 *40:1 0.02559
*RES
1 *38:1 *38:2 600.00
*END

*D_NET *39 0.04290
*CONN
*P *39 B
*CAP
1 *39:1 0.00451
*RES
1 *39:1 *39:2 600.00
*END

*D_NET *40 0.04290
*CONN
*P *40 B
*CAP
1 *40:1 0.00451
*RES
1 *40:1 *40:2 600.00
*END

*D_NET *41 0.05570
*CONN
*P *41 B
*CAP
1 *41:1 0.00451
2 *41:1 *42:1 0.02559
3 *41:1 *43:1 0.02559
*RES
1 *41:1 *41:2 600.00
*END

*D_NET *42 0.04290
*CONN
*P *42 B
*CAP
1 *42:1 0.00451
*RES
1 *42:1 *42:2 600.00
*END

*D_NET *43 0.04290
*CONN
*P *43 B
*CAP
1 *43:1 0.00451
*RES
1 *43:1 *43:2 600.00
*END

*D_NET *44 0.05570
*CONN
*P *44 B
*CAP
1 *44:1 0.00451
2 *44:1 *45:1 0.02559
*RES
1 *44:1 *44:2 600.00
*END

*D_NET *45 0.04290
*CONN
*P *45 B
*CAP
1 *45:1 0.00451
*RES
1 *45:1 *45:2 600.00
*END

*D_NET *46 0.04290
*CONN
*P *46 B
*CAP
1 *46:1 0.00451
2 *46:1 *47:1 0.01280
*RES
1 *46:1 *46:2 600.00
*END

*D_NET *47 0.01505
*CONN
*P *47 B
*CAP
1 *47:1 0.00226
*RES
1 *47:1 *47:2 300.00
*END

*D_NET *48 0.29617
*CONN
*P *48 B
*CAP
1 *48:1 0.29617
*RES
1 *48:1 *48:2 6054.30
*END

*D_NET *49 0.31091
*CONN
*P *49 B
*CAP
1 *49:1 0.31091
*RES
1 *49:1 *49:2 5736.00
*END
